Minimize
  obj: x0 + x1 + x2 + x3 + x4 + x5 + x6

Subject To
  c0: x1 + x4 + x6 = 21
  c1: x0 + x3 + x5 + x6 = 41
  c2: x2 + x4 + x5 = 34
  c3: x0 + x3 + x5 = 27
  c4: x1 + x3 + x4 + x5 = 27
  c5: x3 = 10

Bounds
  x0 >= 0
  x1 >= 0
  x2 >= 0
  x3 >= 0
  x4 >= 0
  x5 >= 0
  x6 >= 0

Generals
  x0 x1 x2 x3 x4 x5 x6

End
